c ! encoding i-pc 250
p cnf 707 1694
-251 0
49 -252 0
192 -253 0
71 -254 0
103 -255 0
138 -256 0
17 -257 0
149 -258 0
259 0
260 -261 0
261 -262 0
29 -262 0
139 -263 0
-29 -263 0
262 263 -264 0
124 -265 0
40 -265 0
266 -267 0
267 -268 0
-40 -268 0
265 268 -269 0
269 -270 0
125 -270 0
124 -272 0
271 -272 0
272 -273 0
-125 -273 0
270 273 -274 0
274 -275 0
196 -275 0
275 -276 0
65 -276 0
269 -277 0
125 -277 0
277 -279 0
278 -279 0
279 -280 0
-65 -280 0
276 280 -281 0
13 -282 0
-55 -282 0
77 -282 0
112 -282 0
142 -282 0
-191 -282 0
202 -282 0
264 -283 0
281 -283 0
282 -283 0
283 -284 0
43 -284 0
285 -286 0
286 -287 0
55 -287 0
112 -288 0
-55 -288 0
287 288 -289 0
289 -290 0
142 -290 0
55 -291 0
285 -291 0
291 -292 0
-142 -292 0
290 292 -293 0
13 -294 0
-191 -294 0
293 -295 0
294 -295 0
295 -296 0
202 -296 0
-13 -297 0
55 -297 0
-142 -297 0
297 -298 0
285 -298 0
298 -300 0
299 -300 0
300 -301 0
-202 -301 0
296 301 -302 0
196 -304 0
303 -304 0
304 -305 0
65 -305 0
125 -306 0
278 -306 0
306 -307 0
-65 -307 0
305 307 -308 0
29 -309 0
40 -309 0
124 -309 0
-139 -309 0
302 -310 0
308 -310 0
309 -310 0
310 -312 0
311 -312 0
312 -313 0
-43 -313 0
284 313 -314 0
-183 -315 0
250 -315 0
314 -316 0
315 -316 0
316 -318 0
317 -318 0
318 -319 0
19 -319 0
13 -320 0
-55 -320 0
77 -320 0
112 -320 0
142 -320 0
-191 -320 0
202 -320 0
250 -320 0
321 -322 0
317 -322 0
264 -323 0
281 -323 0
320 -323 0
322 -323 0
323 -324 0
43 -324 0
317 -325 0
325 -326 0
250 -326 0
123 -327 0
-250 -327 0
326 327 -328 0
311 -329 0
321 -329 0
302 -330 0
308 -330 0
328 -330 0
309 -330 0
329 -330 0
330 -331 0
-43 -331 0
324 331 -332 0
332 -333 0
-19 -333 0
319 333 -334 0
-216 -335 0
242 -335 0
335 -336 0
199 -336 0
337 -339 0
338 -339 0
339 -340 0
-199 -340 0
336 340 -341 0
341 -342 0
163 -342 0
242 -343 0
199 -343 0
337 -344 0
344 -345 0
-199 -345 0
343 345 -346 0
346 -347 0
-216 -347 0
347 -348 0
-163 -348 0
342 348 -349 0
70 -350 0
154 -350 0
351 -352 0
352 -353 0
-154 -353 0
350 353 -354 0
-26 -355 0
28 -355 0
-53 -355 0
74 -355 0
-81 -355 0
106 -355 0
108 -355 0
-119 -355 0
143 -355 0
172 -355 0
-229 -355 0
-233 -355 0
-239 -355 0
245 -355 0
356 -361 0
357 -361 0
358 -361 0
359 -361 0
360 -361 0
334 -362 0
349 -362 0
354 -362 0
355 -362 0
361 -362 0
362 -363 0
195 -363 0
13 -364 0
-191 -364 0
202 -364 0
364 -365 0
142 -365 0
294 -366 0
202 -366 0
-13 -367 0
299 -367 0
367 -368 0
-202 -368 0
366 368 -369 0
369 -370 0
-142 -370 0
365 370 -371 0
-239 -372 0
242 -372 0
372 -373 0
199 -373 0
-242 -374 0
239 -374 0
337 -375 0
375 -376 0
-239 -376 0
374 376 -377 0
377 -378 0
-199 -378 0
373 378 -379 0
106 -380 0
172 -380 0
371 -381 0
379 -381 0
380 -381 0
357 -381 0
381 -382 0
74 -382 0
357 -383 0
383 -384 0
172 -384 0
120 -385 0
-172 -385 0
384 385 -386 0
-13 -387 0
-142 -387 0
-199 -387 0
-202 -387 0
239 -387 0
-242 -387 0
386 -388 0
387 -388 0
299 -388 0
388 -390 0
389 -390 0
390 -391 0
-74 -391 0
382 391 -392 0
26 -393 0
81 -393 0
-108 -393 0
-216 -393 0
233 -393 0
394 -396 0
360 -396 0
395 -396 0
392 -397 0
354 -397 0
393 -397 0
396 -397 0
397 -398 0
53 -398 0
26 -399 0
81 -399 0
-108 -399 0
399 -400 0
394 -400 0
400 -401 0
233 -401 0
394 -402 0
402 -403 0
26 -403 0
-229 -404 0
-26 -404 0
403 404 -405 0
-81 -406 0
108 -406 0
405 -407 0
406 -407 0
407 -408 0
-233 -408 0
401 408 -409 0
74 -410 0
106 -410 0
172 -410 0
-239 -410 0
357 -411 0
360 -411 0
409 -412 0
371 -412 0
349 -412 0
354 -412 0
410 -412 0
411 -412 0
412 -413 0
-53 -413 0
398 413 -414 0
414 -415 0
308 -415 0
415 -416 0
143 -416 0
-13 -417 0
26 -417 0
53 -417 0
65 -417 0
-74 -417 0
81 -417 0
-108 -417 0
120 -417 0
-125 -417 0
-142 -417 0
-172 -417 0
196 -417 0
-199 -417 0
-202 -417 0
-216 -417 0
233 -417 0
239 -417 0
-242 -417 0
394 -418 0
360 -418 0
299 -418 0
395 -418 0
389 -418 0
354 -419 0
417 -419 0
418 -419 0
419 -420 0
-143 -420 0
416 420 -421 0
28 -422 0
29 -422 0
40 -422 0
-43 -422 0
-119 -422 0
124 -422 0
-139 -422 0
311 -423 0
359 -423 0
421 -424 0
328 -424 0
422 -424 0
423 -424 0
424 -425 0
285 -425 0
425 -426 0
55 -426 0
53 -427 0
-199 -427 0
-216 -427 0
-242 -427 0
427 -428 0
395 -428 0
428 -429 0
239 -429 0
-53 -430 0
163 -430 0
-199 -430 0
430 -431 0
337 -431 0
431 -432 0
216 -432 0
346 -434 0
433 -434 0
395 -434 0
434 -435 0
-216 -435 0
432 435 -436 0
436 -437 0
-239 -437 0
429 437 -438 0
26 -439 0
-29 -439 0
43 -439 0
77 -439 0
81 -439 0
-108 -439 0
139 -439 0
233 -439 0
250 -439 0
394 -440 0
317 -440 0
438 -441 0
281 -441 0
439 -441 0
440 -441 0
441 -442 0
119 -442 0
77 -443 0
250 -443 0
281 -444 0
264 -444 0
443 -444 0
317 -444 0
444 -445 0
43 -445 0
308 -446 0
328 -446 0
309 -446 0
311 -446 0
446 -447 0
-43 -447 0
445 447 -448 0
26 -449 0
81 -449 0
-108 -449 0
-216 -449 0
233 -449 0
394 -450 0
395 -450 0
379 -451 0
449 -451 0
450 -451 0
451 -452 0
53 -452 0
409 -453 0
349 -453 0
-239 -453 0
453 -454 0
-53 -454 0
452 454 -455 0
448 -456 0
455 -456 0
456 -457 0
-119 -457 0
442 457 -458 0
458 -459 0
354 -459 0
459 -460 0
28 -460 0
26 -461 0
-29 -461 0
43 -461 0
77 -461 0
81 -461 0
-108 -461 0
119 -461 0
139 -461 0
-154 -461 0
233 -461 0
250 -461 0
394 -462 0
351 -462 0
317 -462 0
438 -463 0
281 -463 0
461 -463 0
462 -463 0
463 -464 0
-28 -464 0
460 464 -465 0
13 -466 0
74 -466 0
106 -466 0
112 -466 0
142 -466 0
143 -466 0
172 -466 0
-191 -466 0
202 -466 0
359 -467 0
357 -467 0
360 -467 0
465 -468 0
466 -468 0
467 -468 0
468 -469 0
-55 -469 0
426 469 -470 0
470 -471 0
251 -472 0
471 472 -473 0
-19 -474 0
245 -474 0
473 -475 0
474 -475 0
475 -476 0
183 -476 0
394 -477 0
395 -477 0
392 -478 0
449 -478 0
477 -478 0
478 -479 0
53 -479 0
74 -480 0
106 -480 0
172 -480 0
-239 -480 0
409 -481 0
371 -481 0
349 -481 0
480 -481 0
357 -481 0
481 -482 0
-53 -482 0
479 482 -483 0
483 -484 0
308 -484 0
484 -485 0
143 -485 0
-13 -486 0
26 -486 0
53 -486 0
65 -486 0
-74 -486 0
81 -486 0
-108 -486 0
120 -486 0
-125 -486 0
-142 -486 0
-172 -486 0
196 -486 0
-199 -486 0
-202 -486 0
-216 -486 0
233 -486 0
239 -486 0
-242 -486 0
394 -487 0
389 -487 0
299 -487 0
395 -487 0
486 -488 0
487 -488 0
488 -489 0
-143 -489 0
485 489 -490 0
250 -491 0
317 -491 0
491 -492 0
19 -492 0
328 -493 0
-19 -493 0
492 493 -494 0
311 -495 0
359 -495 0
490 -496 0
494 -496 0
354 -496 0
422 -496 0
495 -496 0
496 -497 0
285 -497 0
497 -498 0
55 -498 0
354 -499 0
28 -499 0
-154 -500 0
351 -500 0
500 -501 0
-28 -501 0
499 501 -502 0
394 -504 0
317 -504 0
503 -504 0
438 -505 0
274 -505 0
502 -505 0
439 -505 0
504 -505 0
505 -506 0
119 -506 0
317 -507 0
503 -507 0
264 -508 0
274 -508 0
443 -508 0
507 -508 0
508 -509 0
43 -509 0
494 -510 0
309 -510 0
303 -510 0
510 -511 0
311 -511 0
511 -512 0
-43 -512 0
509 512 -513 0
513 -514 0
455 -514 0
354 -514 0
28 -514 0
514 -515 0
-119 -515 0
506 515 -516 0
516 -517 0
196 -517 0
517 -518 0
65 -518 0
394 -519 0
317 -519 0
503 -519 0
438 -520 0
269 -520 0
502 -520 0
439 -520 0
519 -520 0
520 -521 0
119 -521 0
317 -522 0
503 -522 0
264 -523 0
269 -523 0
443 -523 0
522 -523 0
523 -524 0
43 -524 0
494 -525 0
309 -525 0
525 -526 0
311 -526 0
526 -527 0
-43 -527 0
524 527 -528 0
528 -529 0
455 -529 0
354 -529 0
28 -529 0
529 -530 0
-119 -530 0
521 530 -531 0
531 -532 0
125 -532 0
532 -533 0
278 -533 0
533 -534 0
-65 -534 0
518 534 -535 0
13 -536 0
74 -536 0
106 -536 0
112 -536 0
142 -536 0
143 -536 0
172 -536 0
-191 -536 0
202 -536 0
359 -537 0
357 -537 0
535 -538 0
536 -538 0
537 -538 0
538 -539 0
-55 -539 0
498 539 -540 0
540 -541 0
245 -541 0
81 -542 0
-108 -542 0
233 -542 0
379 -543 0
542 -543 0
543 -544 0
53 -544 0
81 -545 0
-108 -545 0
545 -546 0
233 -546 0
406 -547 0
-233 -547 0
546 547 -548 0
548 -549 0
346 -549 0
-239 -549 0
549 -550 0
-53 -550 0
544 550 -551 0
13 -552 0
74 -552 0
106 -552 0
143 -552 0
172 -552 0
-191 -552 0
551 -553 0
308 -553 0
552 -553 0
357 -553 0
553 -555 0
554 -555 0
555 -556 0
202 -556 0
106 -557 0
143 -557 0
172 -557 0
551 -558 0
308 -558 0
557 -558 0
357 -558 0
558 -559 0
74 -559 0
196 -560 0
65 -560 0
278 -561 0
561 -562 0
-65 -562 0
560 562 -563 0
563 -564 0
386 -564 0
143 -564 0
564 -565 0
125 -565 0
386 -566 0
143 -566 0
120 -567 0
-172 -567 0
567 -568 0
-143 -568 0
566 568 -569 0
65 -570 0
196 -570 0
569 -571 0
570 -571 0
571 -572 0
-125 -572 0
565 572 -573 0
53 -574 0
81 -574 0
-108 -574 0
-199 -574 0
233 -574 0
239 -574 0
-242 -574 0
573 -575 0
574 -575 0
575 -576 0
389 -576 0
576 -577 0
-74 -577 0
559 577 -578 0
-13 -579 0
-142 -579 0
578 -580 0
579 -580 0
580 -581 0
299 -581 0
581 -582 0
-202 -582 0
556 582 -583 0
311 -584 0
359 -584 0
583 -585 0
354 -585 0
422 -585 0
584 -585 0
585 -586 0
285 -586 0
586 -587 0
55 -587 0
372 -588 0
433 -588 0
588 -589 0
199 -589 0
53 -590 0
-242 -590 0
590 -591 0
239 -591 0
337 -592 0
433 -592 0
592 -593 0
-239 -593 0
591 593 -594 0
594 -595 0
-199 -595 0
589 595 -596 0
-29 -597 0
43 -597 0
77 -597 0
81 -597 0
-108 -597 0
139 -597 0
233 -597 0
281 -598 0
596 -598 0
597 -598 0
598 -599 0
119 -599 0
260 -600 0
600 -601 0
43 -601 0
-139 -602 0
-43 -602 0
601 602 -603 0
603 -604 0
29 -604 0
43 -605 0
139 -605 0
605 -606 0
-29 -606 0
604 606 -607 0
607 -608 0
77 -608 0
29 -609 0
-43 -609 0
-139 -609 0
609 -610 0
-77 -610 0
608 610 -611 0
611 -612 0
308 -612 0
124 -612 0
612 -613 0
40 -613 0
266 -614 0
614 -615 0
125 -615 0
124 -616 0
-125 -616 0
615 616 -617 0
617 -618 0
196 -618 0
618 -619 0
65 -619 0
125 -620 0
266 -620 0
620 -621 0
278 -621 0
621 -622 0
-65 -622 0
619 622 -623 0
43 -624 0
77 -624 0
623 -625 0
264 -625 0
624 -625 0
625 -626 0
-40 -626 0
613 626 -627 0
627 -628 0
551 -628 0
628 -629 0
-119 -629 0
599 629 -630 0
630 -631 0
354 -631 0
631 -632 0
28 -632 0
-29 -633 0
43 -633 0
77 -633 0
81 -633 0
-108 -633 0
119 -633 0
139 -633 0
-154 -633 0
233 -633 0
281 -634 0
596 -634 0
633 -634 0
351 -634 0
634 -635 0
-28 -635 0
632 635 -636 0
359 -637 0
357 -637 0
636 -638 0
536 -638 0
637 -638 0
638 -639 0
-55 -639 0
587 639 -640 0
19 -641 0
26 -641 0
-216 -641 0
229 -641 0
250 -641 0
640 -642 0
641 -642 0
317 -642 0
642 -643 0
395 -643 0
643 -644 0
-245 -644 0
541 644 -645 0
645 -647 0
646 -647 0
360 -647 0
647 -648 0
-183 -648 0
476 648 -649 0
649 -651 0
650 -651 0
358 -651 0
651 -652 0
104 -652 0
394 -653 0
653 -654 0
245 -654 0
229 -655 0
-245 -655 0
654 655 -656 0
656 -657 0
315 -657 0
657 -658 0
317 -658 0
285 -658 0
658 -659 0
19 -659 0
-112 -660 0
245 -660 0
328 -661 0
660 -661 0
394 -661 0
661 -662 0
321 -662 0
662 -663 0
-19 -663 0
659 663 -664 0
37 -665 0
666 -667 0
667 -668 0
-37 -668 0
665 668 -669 0
-13 -670 0
-14 -670 0
26 -670 0
28 -670 0
29 -670 0
40 -670 0
-43 -670 0
53 -670 0
55 -670 0
-74 -670 0
81 -670 0
-106 -670 0
-108 -670 0
-119 -670 0
124 -670 0
-139 -670 0
-142 -670 0
-199 -670 0
-202 -670 0
-216 -670 0
233 -670 0
239 -670 0
-242 -670 0
359 -671 0
311 -671 0
299 -671 0
395 -671 0
573 -672 0
664 -672 0
669 -672 0
354 -672 0
670 -672 0
671 -672 0
672 -673 0
-104 -673 0
674 -675 0
356 -675 0
675 -676 0
-195 -676 0
679 -681 0
680 -681 0
677 -682 0
681 -682 0
-149 -683 0
-17 -686 0
-138 -689 0
-103 -692 0
251 -696 0
-71 -698 0
251 -702 0
-192 -704 0
-49 -706 0
1 0
2 0
-3 0
4 0
5 0
-6 0
-7 0
8 0
9 0
-10 0
11 0
-12 0
-15 0
16 0
18 0
20 0
-21 0
22 0
-23 0
-24 0
25 0
27 0
-30 0
-31 0
-32 0
33 0
-34 0
35 0
36 0
38 0
-39 0
-41 0
42 0
44 0
-45 0
-46 0
-47 0
-48 0
50 0
51 0
-52 0
-54 0
-58 0
-59 0
-61 0
-62 0
63 0
-64 0
-66 0
67 0
68 0
69 0
72 0
73 0
-75 0
-76 0
-78 0
79 0
-80 0
-82 0
-83 0
84 0
-85 0
86 0
-87 0
88 0
89 0
90 0
91 0
-92 0
-93 0
-94 0
95 0
96 0
97 0
98 0
-99 0
-100 0
101 0
-102 0
-105 0
107 0
-109 0
-110 0
111 0
-113 0
114 0
115 0
-116 0
-117 0
-118 0
-121 0
-122 0
-126 0
127 0
128 0
129 0
130 0
131 0
-132 0
133 0
134 0
-135 0
137 0
140 0
-141 0
144 0
145 0
147 0
-148 0
150 0
151 0
-152 0
153 0
155 0
-156 0
-157 0
158 0
-159 0
-160 0
161 0
-162 0
-164 0
165 0
166 0
-167 0
-168 0
169 0
170 0
173 0
-174 0
-175 0
176 0
-177 0
178 0
-179 0
-180 0
181 0
-182 0
-184 0
185 0
186 0
-187 0
188 0
-189 0
190 0
193 0
-194 0
197 0
-198 0
201 0
203 0
-204 0
205 0
206 0
-207 0
208 0
-209 0
210 0
-211 0
212 0
213 0
-214 0
-215 0
-217 0
218 0
219 0
220 0
-221 0
222 0
223 0
-224 0
-225 0
-227 0
-228 0
230 0
231 0
232 0
-234 0
-235 0
236 0
237 0
238 0
-240 0
-241 0
243 0
244 0
-246 0
-247 0
248 0
-249 0
-706 707 0
-705 706 0
-703 704 0
171 702 0
-701 703 0
-695 697 0
-691 692 0
-688 689 0
-686 687 0
-683 684 0
-682 683 0
-678 682 0
-700 701 0
-704 705 0
-675 676 0
-674 675 0
104 673 0
-672 673 0
-671 672 0
-670 672 0
-669 672 0
-666 667 0
-200 666 0
106 389 670 0
-687 688 0
-199 336 343 373 589 0
-697 698 0
-43 284 324 439 445 461 509 524 597 601 605 624 633 0
172 385 417 486 567 0
-642 643 0
-383 384 0
-382 392 0
-239 374 387 417 429 486 574 591 670 0
-373 379 0
-370 371 0
-467 468 0
-195 363 0
-299 300 367 388 418 487 581 671 0
-378 379 0
-294 295 366 0
-330 331 0
-503 504 507 519 522 0
120 357 0
-395 396 418 428 434 450 477 487 643 671 0
239 355 372 376 410 437 453 480 549 593 0
-302 310 330 0
229 355 394 404 0
-567 568 0
-388 390 0
-384 386 0
-106 355 380 389 410 466 480 536 552 557 0
-569 571 0
-172 355 380 384 410 466 480 536 552 557 0
-581 582 0
-643 644 0
-379 381 451 543 0
-389 390 418 487 576 0
-550 551 0
-455 456 514 529 0
-479 483 0
-498 540 0
-496 497 0
-372 373 588 0
-74 355 382 410 466 480 536 552 559 0
-386 388 564 566 0
-507 508 0
-377 378 0
-492 494 0
-279 280 0
-375 376 0
-433 434 588 592 0
-353 354 0
-636 638 0
-371 381 412 481 0
-125 270 277 303 306 532 565 615 620 0
-352 353 0
-632 636 0
-482 483 0
163 348 395 0
-689 690 0
-349 362 412 453 481 0
-361 362 0
-345 346 0
-511 512 0
-393 397 0
-344 345 0
-343 346 0
-368 369 0
-466 468 0
-342 349 0
-233 393 401 417 439 449 461 486 542 546 574 597 633 670 0
-341 342 0
-340 341 0
-658 659 0
-339 340 0
37 360 668 0
-362 363 0
-497 498 0
242 337 374 387 417 427 486 574 590 670 0
-476 649 0
-529 530 0
-398 414 0
-242 335 337 343 372 0
-528 529 0
-336 341 0
-350 354 0
-514 515 0
-635 636 0
-283 284 0
-611 612 0
-112 282 285 288 320 466 536 0
-465 468 0
125 273 303 417 486 572 616 0
55 282 288 320 469 539 639 0
-369 370 0
-348 349 0
-331 332 0
226 696 0
-509 513 0
65 280 307 534 562 622 0
-667 668 0
-447 448 0
-334 362 0
-390 391 0
-500 501 0
196 278 0
-300 301 0
40 268 271 626 0
-400 401 0
-196 275 278 304 417 486 517 560 570 618 0
-40 265 271 309 422 613 670 0
-367 368 0
-271 272 0
-313 314 0
26 355 404 0
-392 397 478 0
-270 274 0
233 355 408 547 0
-347 348 0
-508 509 0
-614 615 0
-355 362 0
-381 382 0
-281 283 323 441 444 463 598 634 0
-547 548 0
74 391 417 486 577 670 0
-263 264 0
-420 421 0
-646 647 0
-346 347 434 549 0
-65 276 305 417 486 518 560 570 619 0
-617 618 0
-191 299 0
-443 444 508 523 0
19 333 474 493 503 663 0
154 353 461 500 633 0
-77 282 311 320 439 443 461 597 608 624 633 0
139 260 309 422 602 609 670 0
-28 355 422 460 499 514 529 632 670 0
-327 328 0
-266 267 614 620 0
-29 262 309 422 604 609 670 0
-311 312 329 423 446 495 511 526 584 671 0
-460 465 0
-487 488 0
-142 282 290 320 365 466 536 554 0
-289 290 0
-304 305 0
-136 359 0
-276 281 0
-493 494 0
-264 283 323 444 508 523 625 0
-328 330 424 446 493 661 0
-286 287 0
-301 302 0
-668 669 0
-450 451 0
-337 339 344 375 431 592 0
-333 334 0
-445 448 0
-504 505 0
199 340 345 378 387 417 427 430 486 574 595 670 0
-652 674 0
-317 318 322 325 440 444 462 491 504 507 519 522 642 658 0
-329 330 0
191 282 294 299 320 364 466 536 552 0
-274 275 505 508 0
-485 490 0
-546 548 0
-260 261 600 0
-332 333 0
-380 381 0
-262 264 0
-268 269 0
142 292 297 370 387 417 486 554 579 670 0
-387 388 0
-285 286 291 298 425 497 586 658 0
81 355 406 0
-13 282 294 320 364 466 536 552 0
-391 392 0
-609 610 0
-272 273 0
202 301 368 387 417 486 582 670 0
-385 386 0
136 359 0
-438 441 463 505 520 0
-560 563 0
14 358 670 0
-538 539 0
-596 598 634 0
-288 289 0
-354 362 397 412 419 459 496 499 514 529 585 631 672 0
-37 360 665 0
-621 622 0
-699 700 0
-394 396 400 402 418 440 450 462 477 487 504 519 653 661 0
-591 594 0
43 313 331 422 447 512 527 602 609 670 0
-310 312 0
-559 578 0
-250 315 320 326 439 443 461 491 641 0
-265 269 0
-338 339 0
124 266 0
-661 662 0
-216 338 432 0
123 317 0
112 285 660 0
-314 316 0
-531 532 0
-296 302 0
-453 454 0
-55 287 291 297 426 498 587 670 0
-524 528 0
-139 260 263 439 461 597 605 633 0
-321 322 329 662 0
-627 628 0
-291 292 0
-441 442 0
-574 575 0
-306 307 0
-259 261 267 286 325 339 344 352 375 383 402 561 592 600 614 653 667 0
-659 664 0
-308 310 330 415 446 484 553 558 612 0
-154 350 0
-19 319 492 503 641 659 0
13 297 367 387 417 486 579 670 0
-297 298 0
-488 489 0
-273 274 0
-303 304 510 0
77 311 610 0
-305 308 0
-519 520 0
-143 355 416 466 485 536 552 557 564 566 0
-108 355 406 0
-316 318 0
-649 651 0
-312 313 0
-409 412 453 481 0
-462 463 0
-407 408 0
-516 517 0
183 315 321 648 0
-376 377 0
-365 371 0
-608 611 0
-123 317 327 0
-70 350 351 0
-489 490 0
-275 276 0
119 355 422 457 515 530 629 670 0
-320 323 0
-322 323 0
-120 357 385 417 486 567 0
-685 686 0
-351 352 462 500 634 0
-323 324 0
-324 332 0
-549 550 0
-325 326 0
-326 328 0
56 472 0
-269 270 277 520 523 0
-26 393 399 403 417 439 449 461 486 641 670 0
-464 465 0
-267 268 0
-81 393 399 417 439 449 461 486 542 545 574 597 633 670 0
-229 394 641 655 0
-318 319 0
-663 664 0
-396 397 0
-397 398 0
-439 441 505 520 0
-53 398 417 427 433 452 479 486 544 574 590 670 0
-402 403 0
-403 405 0
-506 516 0
-404 405 0
-406 407 547 0
-520 521 0
-408 409 0
-405 407 0
-515 516 0
-410 412 0
-226 695 0
-411 412 0
-625 626 0
-412 413 0
-401 409 0
-517 518 0
-525 526 0
-414 415 0
-416 421 0
-422 424 496 585 0
-477 478 0
-417 419 0
-202 282 296 320 364 366 466 536 556 0
-637 638 0
-418 419 0
-419 420 0
143 420 489 568 0
-532 533 0
-421 424 0
-481 482 0
-423 424 0
-424 425 0
-425 426 0
-639 640 0
-426 470 0
-427 428 0
-428 429 0
-429 438 0
-430 431 0
-431 432 0
-432 436 0
-435 436 0
-183 321 476 0
-436 437 0
-437 438 0
-440 441 0
-119 442 461 506 521 599 633 0
-651 652 0
-442 458 0
-558 559 0
-657 658 0
-449 451 478 0
-287 289 0
-626 627 0
-451 452 0
-452 455 0
-564 565 0
-454 455 0
-456 457 0
-358 361 651 0
-457 458 0
195 676 0
-458 459 0
-360 361 396 411 418 467 647 0
-459 460 0
-461 463 0
-463 464 0
28 464 501 635 0
-468 469 0
-413 414 0
-523 524 0
-469 470 0
-470 471 0
-471 473 0
-473 475 0
29 263 439 461 597 606 633 0
-474 475 0
-597 598 0
-478 479 0
-698 699 0
-480 481 0
-483 484 0
-598 599 0
-364 365 0
-484 485 0
53 355 413 430 433 454 482 550 0
-539 540 0
-486 488 0
-552 553 0
-277 279 0
-490 496 0
-548 549 0
-278 279 306 533 561 621 0
-491 492 0
-280 281 0
-494 496 510 525 0
-495 496 0
-499 502 0
-501 502 0
-502 505 520 0
-505 506 0
-570 571 0
-510 511 0
-14 358 0
-512 513 0
-295 296 0
-630 631 0
-513 514 0
-298 300 0
-631 632 0
-518 535 0
108 393 399 417 439 449 461 486 542 545 574 597 633 670 0
-521 531 0
-163 342 395 430 0
-522 523 0
-578 580 0
-415 416 0
-526 527 0
-527 528 0
-530 531 0
-533 534 0
-534 535 0
-535 538 0
-536 538 638 0
-557 558 0
-537 538 0
-124 265 266 272 309 422 612 616 670 0
-662 663 0
-579 580 0
-656 657 0
-245 355 474 541 654 660 0
-540 541 0
-307 308 0
-541 645 0
-542 543 0
-543 544 0
250 327 0
-544 551 0
247 685 0
-545 546 0
-551 553 558 628 0
-553 555 0
-554 555 0
-555 556 0
-556 583 0
-444 445 0
-561 562 0
-562 563 0
-563 564 0
-613 627 0
-565 573 0
-566 569 0
-568 569 0
-571 572 0
-572 573 0
-573 575 672 0
-357 361 381 383 411 467 481 537 553 558 637 0
-575 576 0
-576 577 0
-577 578 0
-580 581 0
70 351 0
-582 583 0
-583 585 0
-584 585 0
-690 691 0
-585 586 0
-586 587 0
-587 640 0
-692 693 0
-588 589 0
-315 316 657 0
-589 596 0
-693 694 0
-590 591 0
-475 476 0
-592 593 0
-593 594 0
-594 595 0
-282 283 0
-595 596 0
-292 293 0
-599 630 0
-261 262 0
-600 601 0
-601 603 0
-602 603 0
-366 369 0
-603 604 0
-604 607 0
-605 606 0
-606 607 0
-607 608 0
-610 611 0
146 356 0
-374 377 0
-612 613 0
-615 617 0
-616 617 0
-618 619 0
-619 623 0
-309 310 330 446 510 525 0
-620 621 0
-622 623 0
-623 625 0
-146 356 0
-624 625 0
-290 293 0
-628 629 0
-293 295 0
-629 630 0
-399 400 0
-633 634 0
-634 635 0
-638 639 0
-640 642 0
245 644 655 0
-641 642 0
-644 645 0
-645 647 0
-647 648 0
-236 678 0
-284 314 0
-648 649 0
-650 651 0
-181 355 650 670 0
-653 654 0
-434 435 0
-654 656 0
-655 656 0
-660 661 0
-446 447 0
-319 334 0
-664 672 0
-335 336 0
-448 456 0
-665 669 0
